100
32
22
18
15
5
26
2
6
1
1
10
25
10
32
3
11
18
2
1
4
4
4
4
1
1
1
19
2
2
2
2
2
18
3
19
4
3
3
1
2
3
16
2
2
22
12
5
4
12
6
14
8
1
1
7
2
1
1
6
1
19
3
2
5
17
6
9
10
14
12
31
11
23
3
6
2
13
20
24
28
1
17
12
4
12
20
5
19
1
10
3
4
17
2
1
16
4
12
12
1
2